
 102   30
  10   10   10   10   10   10   10   10   10   10   10   10   10   10   10   10   10   10   10   10   10   10   10   10   10   10   10   10   10   10

   0   0   0   0   0   0   0   0   0   0   0   0   0   0   0   0   0   0   0   0   0   0   0   0   0   0   0   0   0   0   0  27 2 3 4 5 6 7 8 9 10 11 12 13 14 15 16 19 21 22 23 24 26 28 29 35 39 41 42 
   3   0   0   0   0   0   0   0   0   0   0   0   0   0   0   0   0   0   0   0   0   0   2   0   0   0   0   0   2   0   0   9 73 71 58 56 50 34 30 20 18 
   4   0   0   0   0   0   2   0   0   0   0   0   0   0   0   0   0   0   0   1   0   0   0   0   0   3   0   0   4   0   0  18 101 100 95 73 70 68 64 61 60 56 54 53 50 49 40 37 36 25 
   5   0   0   1   2   1   0   0   0   0   0   0   0   0   0   0   0   0   0   0   1   0   0   0   1   0   1   0   0   0   0  16 94 72 68 67 64 62 60 58 54 52 51 48 47 44 36 31 
  10   0   1   0   0   0   0   0   0   0   0   0   0   0   0   0   0   0   1   0   8   0  10   0   0   0   0   0   0   0   0  11 71 68 63 62 60 53 49 43 36 34 17 
   5   0   0   0   0   0   0   0   0   0   0   1   0   0   0   0   2   0   4   0   0   0   0   0   8   0   0   0   0   0   0  13 101 73 72 70 63 61 58 56 54 46 45 38 25 
   1   0   0   0   6   6   0   0   0   0   0   0   6   0   0   0   0   0   8   0   0   0   0   1   0   0   0   0   0   0   0  25 101 99 98 97 94 93 92 91 86 73 72 71 70 69 67 66 62 60 59 58 55 54 52 50 48 
   2   0   0   0   0   0   0   0   0   1   0   0   0   0   0   0   0   0   0   0   5   0   0   0   0   0   0   0   6   0   0  16 100 99 97 93 73 72 71 66 63 62 58 56 54 53 34 33 
   5   0   8   0   0   0   0   0   0   0   0   0   0   0   0   0   0   0   0   0   0   0   0   0   0   0   0   0   8   0   0  12 98 67 58 55 54 52 50 49 48 47 43 32 
   4   0   0   0   0   0   0   1   0   0   0   0   0   0   0   0   0   0   0   0   0   0   0   0   0   0   0   0   0   0   0  16 101 97 96 93 91 69 63 62 61 58 55 51 49 48 44 34 
   4   0   0   0   0   0   0   0   0   0   0   0   3   0   0   0   0   0   0   0   0   0   4   0   0   0   7   0   0   0   0  15 100 98 90 89 88 73 70 69 68 67 62 55 53 45 31 
   3   0   0   9   0   5   0   0   0   0   0   0   7   0   0   0   0   0   0   4   0   0   7   0   0   0   0   0   3   0   0  17 101 100 95 94 93 90 72 70 69 63 61 56 55 53 50 47 45 
   5   0   0   0   5   0   6   0   0   0   0   0   0   0   0   0   0   0   0   0   0   1   0   0   0   4   8   0   0   0   0  12 95 73 72 67 64 61 57 56 50 47 45 40 
   6   0   0   0   0   0   0   0   0   0   0   0   0   0   0   0   4   0   0   0   0   0   0   0   6   0   0   0   0   0   0  15 99 98 94 93 89 85 72 71 69 68 64 61 56 52 40 
   9   0   8   0   0   5   0   0   0   5   0   0   0   0   0   0   0   0   0   8   6   0   0   0   0   0   0   0   0   0   0  19 99 98 97 93 91 87 73 70 69 68 67 66 62 61 60 58 55 52 48 
   1   0   0   0   0   0   0   0   0   0   0   0   6   0   0   0   0   0   0   0   9   0   4   0   0   0   4   1   0   0   0  24 101 100 99 97 94 93 91 89 88 87 85 83 73 70 69 68 67 66 64 62 60 59 58 55 
   6   0   0   0   0   0   0   0   0   0   0   0   0   0   0   0   0   0   0   0   0   0   0   7   0   0   0   0   0   0   1  10 101 95 93 84 79 67 58 52 45 33 
  10   0   0   0   0   0   0   0   0   0   0   7   0   1   1   0   0   0   0   0   0   0   8   0   0   0   0   0   0   0   0  10 97 90 89 85 70 69 67 52 43 31 
   3   0   3   0   0   0   0   0   0   0   0   0   5   0  10   0   0   0   0   0   0   3   0  10   0   0   0   0   0   0  10  12 99 95 92 90 86 83 72 70 63 55 53 27 
   7   1   0   0   0   0   0   0   0   0   0   0   0   0   0   0   0   0   0   0   0   5   0   0   0   0   0   0   7   0   6  17 99 98 97 94 93 92 91 90 89 66 65 64 62 55 49 48 47 
   6   0   0   0   0   0   0   0   0   0   0   0   0   0   0   0   0   0   0   0   2   0   0   0   9   0   0   0   0   0   0  15 100 96 94 91 89 72 69 68 67 66 64 61 60 58 47 
   6   0   0   0   0   0   0   0   1   0   0   0   0   0   0   0   9   0   8   0   5   4   0   0   0   0   0   0   0   1   6  14 101 98 97 96 91 89 70 67 66 62 59 54 49 48 
   5   0   0   0   0   0   0   0   0   0   0   0   0   5   5   0   0   0   0   0   0   0   0  10   3   0   7   0   0   6   0  17 101 100 92 91 89 88 87 86 85 83 72 69 66 62 59 58 55 
   9   0   5   0   0   0   0   0   0   0   0   0   0   0   0   0   0   0   0   0   0   0   0   0   0   0   0   0   0   8   0  18 96 95 94 93 92 89 88 86 84 83 76 73 72 71 67 66 59 58 
   2   0   0   0   0   0   0   0   0   6   0   0   0   0   0   1   0   3   0   5   0   0   5   0   0   0   0   0   0   0   0  12 98 96 94 93 90 84 79 71 69 65 52 47 
   8   0   0   0   0   0   0   0   0   0   1   0   0   0   4   0   0   0   0   0   0   0   0   0   0   7   0   0   0   0   0  11 98 97 90 88 85 78 71 70 69 61 50 
   9   0   0   0   0   0   0   0   0   0   0   0   0   0   0   0   0   4   0   0   0   0   0   0   0  10   3   0   0   0   0  19 100 98 96 94 93 91 89 88 87 85 84 82 80 79 77 76 69 66 65 
   9   0   0   0   0   0   0   0   0   0   0   0   6   0   0   0   0   0   0   0   0   0   0   0   0   0   0   0   0   0   0  14 95 94 92 91 90 87 86 85 83 81 67 65 59 55 
   7   0   0   0   0   0   0   0   0   0   0   0   0   0   5   0   0   0   0   0   0   7   0   0   0   0   0   7   0   0   0  12 92 91 90 88 85 83 71 70 66 65 59 55 
   9   0  10   7   6   0   0   0   0   0   0   0   0   0   0   0   0   0   0   7   0   0   0   0   0   0   0   0   0   0  10  15 99 95 93 91 89 87 86 85 82 80 76 72 66 65 60 
   2   0   0   0   5   0   0   0   0   7   0   0   0   0   0   0   0   0   0   6   6   0   0   0   0   0   0   0   0   0   0  13 101 99 96 95 93 91 84 82 76 66 65 63 61 
   7   0   0   0   0   0   0   0   0   0   0   0   0   0   0   0   0   0   0   0   0   0   0   5   0   0   0   0   0   0   5  12 97 96 93 90 88 76 71 69 68 66 65 61 
   3   6   0   0   0   0   0   0   0   0   7   0   0   0   0   0   0   5   0   0   0   0   0   0   3   0   0   0   0   0   0  10 98 94 91 89 77 75 70 65 61 47 
   1   7   0   0   0   0   0   0   0   0   5   0   0   0   0   0   0   0   0   0   0   0   0   0   0   0   7   0   6   0   0  10 98 94 89 84 81 79 75 70 65 47 
   3   0   0   0  10   0   0   0   0   0   0   0   0   0   0   0   0   0   0   8   0   0   8   0   8   0   0   0   0   0   0   9 92 89 88 85 70 69 59 55 49 
   6   0   0   0   0   0   0   0   0   5   0   0   0   0   0   0   8   0   0   0   0   7   0   0   4   0   0   0   0   0   0  17 97 96 93 92 91 90 89 84 83 80 79 78 77 76 74 69 66 
   4   0   0   0   0  10   0   0   0   0   0   6   0   0   0   0   0   0   0   0   0   8   0   5   0   6   0   0   0   0   0  14 99 97 94 90 89 88 87 83 82 81 78 76 72 59 
   4   0   0   0   0   0   0  10   0   0   0   0   0   5   0   7   6   0   0   0   0   0   0   0   0   0   0   6  10   0   0  12 98 95 91 90 89 88 85 83 82 81 65 55 
   7   0   0   0   0   0   0   0   0   0   0   0   0   0   0   0   0   0   3   0   0   0   0   0   0   3   0   0   0   0   0   7 94 89 81 79 65 59 47 
   9   0   0   0   0   0   6   0   9   0   0   0   0   0   0   0   6   0   0   0   0   5   0   0   0   0   0   0   0   0   0   7 97 87 83 66 59 58 55 
   5   0   0   9   0   0   0   8   0   0   0   0   0   0   0   0   0   0   0   0   0   0   0   0   0  10   0   0   0   0   0  15 97 96 93 90 89 87 86 84 83 82 80 76 75 68 67 
  10   0   0   6   0   0   0   7   0   0   0   0   0   0   0   0   0   0   0   0   0   0   0   0   0   0   0   7   0   0   0  10 98 96 93 90 87 82 68 66 65 59 
   6   0   0   0   0   0   0   0   0   0   3   7   0   8   0  10   0   0   0   9   0   0   8   0   0   0   0   0   0   0   0  10 95 94 92 91 87 83 79 78 76 59 
   8   0   0   0   0   0   9   8   0   0   7   0   0   0   0   0   0   0   0   6   0   0   0   0   0   0   0   7   0   0   0   8 100 86 85 83 79 76 71 59 
   2   0   0   0   5   0   0   0   0   8   0   0   0   0   6   0   0   0   5   0   0   0   0   0   6   0   0   0   0   0   0   7 99 97 87 76 66 65 59 
   8   3   6   0   0   6   0   0   4   0   0   0   0   6   0   0   4   0   0   0   0   0   0   0   0   0   6   0   0   0   0   4 86 85 59 55 
   7   0   0   4   0   0   0   0   0   0   6   0   0   0   0   0   0   0   0   0   0   0   0   0   0   0   0   0   0   0   0  10 88 87 86 85 83 82 80 78 76 74 
   3   0   6   0   0   0   0   9   0   0   0   0  10   0   0   0   0   0   0   0   0  10   0   0   0   9   0   0   0   0   0  10 100 95 85 84 83 78 77 76 75 74 
   6   0   0   0   0   0   0   0   0   9   0   0   0   0   0   0   0   0   0   0   0   0   0   0   0   0   0   0   0   8   4  10 86 84 81 80 79 78 77 76 75 74 
   4   0   0   0   0   4   0   0   0   0   0   0   0   6   0   7   0   0   0   0   0   0   0   5   7   0   0   5   0   0   8  10 96 89 84 83 81 80 79 77 76 74 
   4   0   0   0   0   9   0   4   0   0   7   3   0   0   0   0   0  10   0   3   0   0   0   0   0   0   0   0   5   0   0   7 86 84 79 76 75 70 65 
   9   0   8   0   0   5   0   0   0   0   0   6   0   7   6   0   0   0   7   0   0   0   0   0   0   0   0   9   0   0   0   9 88 82 81 80 78 77 76 75 74 
   3   0   7   0   0   0  10   0   7   0  10   9   0   0   0   0   0   0   0   0   7   0   0   5   0   0   7   0   0   0   0   5 85 82 79 76 59 
   2   9   0   0   0   0   0   0   0   0   5   0   0   0   0   0   0   0   0   0   0   0   0   0   5   0   0   0   0   0   0   8 87 85 82 81 80 79 76 75 
   7   0   0   0   0   0   0   0   0   0   0   0   0   6   0   0  10   0   0   0   0   0   0   0   0   0   0   0   0   0   0   7 84 79 78 77 76 75 74 
   9   0   7   0   0   0   0   0   7   4   0   0   0   0   0   0   0   0   0   0   0   0   0   0   5   0   0   0   0   0   0   4 96 91 79 65 
   5  10   0   3   0   4   0   0   0   0   0   0   0   0   0   6   0   0   0   0   0   0   0   0   7   0   0   0   0   0   0   5 94 93 91 79 76 
   7   0   0   0   9   7   0   0   0   0   7   7   0   0   5   0   0   0   0   0   9   0   0   0   0   0   0   0   0   0   6   3 90 77 65 
   9   0   0   0   6   0   0   0   0   0   0   0   0   0   0   0   9   0   0   4   0   0   0   0   0   0   0   5   0   0   0   4 80 77 75 74 
   2   0   0   0   0   0   0   0   0   0   0   0   7   0   0   0   0   0   0   0   0   0   0   0   0   0   0   9   0   0   0   4 81 78 77 75 
  10   0   0   0   0   0   0   0   0   0   0   0   0   0   0   0   0   0   0   0   0   0   0   6   0   0   0   0   0   0   0   3 92 86 83 
   6   0   0   0   0   0   0   0   0   0   0   0   0   0   0   0   6   0   0   8   0   0   0   0   0   0   0   0   0   0   0   3 95 84 76 
   1   0   0   0   0   0   0   0   0   0   0   0   0   0   0   0   0   0   0   0   0   0   0   0   0   2   0   0   5   5   0   3 79 75 74 
   5   0   4   0   0   0   0   0   0   0   0   0   0   0   0   0   0   0   0   0   0   0   0   4   0   0   0   0   0   0   0   3 77 76 75 
   6   5   0   0   0   0   0   0   0   9   0   0   0   0   0   0   0   0   0   0   0   0   0   0   0   0   9   0   0   0   0   2 78 74 
   7   8   0   0   0   0   0   0   7   0   0   0   0   0   0   3   0   0   0   0   2   0   0   5   0   0   6   0   0   0   5   2 81 75 
   5   6   0   0   0   0   0   0   0   8   0   0   0   0   0   0   0   0   0   0   0   5   0   0   0   0   0   0   5   0   0   2 77 74 
  10   0   0   0   5   0   0   0   8   0   0   0   0   0   0   0   5   0  10   0   0   6   0   0   0   0   6   0   0   0   0   2 77 74 
   6   0   0   0   0   0   0   0   0   0   0   0   0   0   0   6   6   0   0   0   0   0   0   7   0   0   0   0   0   0   0   1 75 
   9  10   6   0   0   0   0   6   0   0   0   0   0   0   0   0   0   0   0   0   0   0   0   0   0   0   7   0   5   0   0   1 82 
   9   0   0   0   0   0   7   5   0   0   0   0   0   0   4  10   0   6   0   0   0   0   0   0   0   0   0   0   0   0   0   1 82 
   3   0   0   8   0   0   0   0   0   0   0   0   0   0   7   8   0   0   0   0   0   6   0   0   0   9   0   0   0   5   0   1 79 
   9   0   0   0   0   0   0   0   0   0   0   0   0   6   0   4   0   0   0   0   0   0   0   0   0   3   0   0   0   0   0   1 74 
   5   0   0   0   0   0   0   0   0   0   0   0   0   0   0   6   0   0   0   0   0   0   0   0   0   0   0   0   0   0   0   1 102
  10   0   0   0   0   0   0   5   0   0   0   0   0   0   0   7   0   0   0   0   0   0   0   0   0   0   6   0  10   0   0   1 102
   6   0   0   0   0   0   0   0   0   0   0   0   0   0   0   0   0   0   0   0   0   0   0   0   0   0   0   0   0   0   0   1 102
   1   0   0   0   0   0   0   0   0   5   0   0   0   0   0   0   0   8   0   0   0   0   3   0   0   0   0   0   0   0   6   1 102
   4   0   0   7   6   0   0   0   0   0   0   0   0   6   0   0   0   0   0   0   0   0   0   0   0   0   0   0   0   0   0   1 102
  10   0   0   0   0   0   0   0   0   0   0   0   0   0   0   0   0   0   0   0   0   0   0   0   8   0   4   0   0   0   0   1 102
   8   0   0   0   0   0   0   0   0   8   0   0   0   0   4   0   5   0   0   5   0   0   5   0   0   0   0   0   0   0   0   1 102
   7   0   0   0   0   5   0   0   0   0   0   0   0   0   0   0   0   0   0   0   0   0   0   0   0   0   0   0   0   0   0   1 102
   4   0   0   0   0   0   0   0   0   0   0   0   0   0   0   0   0   9   0   0   0   0   4   0   7   0   0   0   0   0   0   1 102
   2   0   0   0   0   0   0   0   0   5   0   0   0   0   0   0   0   6   0   3   0   0   0   6   0   0   0   0   0   0   0   1 102
  10   0   0   0   0   0   0   0   0   0   0   0   0   0   0   4   6   0   0   0   0   0   0   0   0   0   8   0   7   0   0   1 102
   7   0   0   0   0   0   0   0   0   0   0   0   0   0   0   0   0   0   0   0   0   0   0   0   9   7   0   0   0   0   0   1 102
   2   5   0   0   0   0   0   3   4   0   0   0   0   0   0   0   0   0   0   0   0   0   0   0   0   0   7   0   0   0   0   1 102
   7   7   0   0   0  10   0   0   0   0   0   0   0   0   0   0   0   0   0   0   0   0   0   8   0   5   5   0   0   0   0   1 102
   5   0   0   0   0   0   0   0   0   0   0   0   0   0   8   0   0   0   0   0   0   9   0   0   0   0   0   0   0   0   5   1 102
   4   7   0   0   7   0   0   0   0   0   0   0   0   0   0   0   0   0   0   0   8   0   0   6   0   0   0   0  10   5   0   1 102
   3   0   0   0   0   0   0   0   0   0   0   0   0   0   0   0   0   0   0   9   0   0   0   0   0   0   0   0   0   0   0   1 102
   8   0   0   0   0   0   0   0   0   6   0   0   0   0  10   0   8   0   0   0   0   0  10   0   0   0   0   0   0   0   0   1 102
   1   3   5   0   0   0   0   0   0   0   0   0   0   0   0   0   0   0   8   0   7   0   0   0   0   0   0   0   0   0   0   1 102
   4   0   0   0   0   0   0   0   0   0   0   0   4   7   0   0   0   0   0   0   9   0   0   0   0   0   0   0   4   9   0   1 102
   5   0   0   0   0   0   0   0   0   0   0   0   0   0   0   0   0   3   0   0   0   0   0   0   0   0   0   0   0   0   0   1 102
   7   5   0   0   0   6   0   0   7   0   7   0   0   0   7   5   0   0   0   0   0   0   0   0   0   0   0   0   0   0   0   1 102
   9   0   0   0   0   0   0   0   0   0   0   6   0   0   7   0   0   0   6   0   0   8   0   0   0   0   0   0   0   0   0   1 102
  10   0   0   0   0   0   0   0   0   0   0   0   6   0   0   0   0   0   0   0   0   0   0   0   0   0   0   0   0   7   0   1 102
   1   0   0   0   0   0   2   0   6   0   0   0   0   0   0   0   0   0   0   0   0   0   0   0   0   0   0   0   4   0   0   1 102
   9   0   0   0   0   0   0   0   0   0   7   7   0   9   4   0   3   0   0   0   0   0   0   0   0   0   0   5   0   0   0   1 102
   6   0   0   0   0   0   0   0   0   0   0   0   0   0   0   0   0   0   0  10   0   0   0   0   0   0   0   5   0   0   0   1 102
   2   4   0   0   0   7   0   0   0   4   0   7   0   0   9   0   5   0   0   0   0   0   0   0   0   0   0   0   7   0   0   1 102
   0   0   0   0   0   0   0   0   0   0   0   0   0   0   0   0   0   0   0   0   0   0   0   0   0   0   0   0   0   0   0   0 
